\ Model shortest_path
\ LP format - for model browsing. Use MPS format to capture full model detail.
Minimize
  0.987 x[1_0,1^0,1] + 5.583315144248981 x[2_0,2^0,2] + 3.948 x[2_0,2^1,2]
   + 11.16663028849796 z[3_0,3^0] + 13.67627317656386 z[3_1,3^0]
   + 15.792 z[3_2,3^0]
Subject To
 UB-y[3_0,3^0,1]: x[3_0,3^0,1] - y[3_0,3^0,1] <= 0
 UB-y[3_0,3^0,2]: x[3_0,3^0,2] - y[3_0,3^0,2] <= 0
 UB-y[3_1,3^0,1]: x[3_1,3^0,1] - y[3_1,3^0,1] <= 0
 UB-y[3_1,3^0,2]: x[3_1,3^0,2] - y[3_1,3^0,2] <= 0
 UB-y[3_2,3^0,1]: x[3_2,3^0,1] - y[3_2,3^0,1] <= 0
 UB-y[3_2,3^0,2]: x[3_2,3^0,2] - y[3_2,3^0,2] <= 0
 UB-z[1,('3_0',_'3^0')]: y[3_0,3^0,1] - z[3_0,3^0] <= 0
 UB-z[1,('3_1',_'3^0')]: y[3_1,3^0,1] - z[3_1,3^0] <= 0
 UB-z[1,('3_2',_'3^0')]: y[3_2,3^0,1] - z[3_2,3^0] <= 0
 UB-z[2,('3_0',_'3^0')]: y[3_0,3^0,2] - z[3_0,3^0] <= 0
 UB-z[2,('3_1',_'3^0')]: y[3_1,3^0,2] - z[3_1,3^0] <= 0
 UB-z[2,('3_2',_'3^0')]: y[3_2,3^0,2] - z[3_2,3^0] <= 0
 netflow[1_0]: x[1_0,1^0,1] + x[1_0,1^1,1] = 1
 netflow[1^0]: - x[1_0,1^0,1] + x[1^0,3_0,1] = 0
 netflow[1^1]: - x[1_0,1^1,1] + x[1^1,3_1,1] = 0
 netflow[2_0]: x[2_0,2^0,2] + x[2_0,2^1,2] + x[2_0,2^2,2] = 1
 netflow[2^0]: - x[2_0,2^0,2] + x[2^0,3_0,2] = 0
 netflow[2^1]: - x[2_0,2^1,2] + x[2^1,3_1,2] = 0
 netflow[2^2]: - x[2_0,2^2,2] + x[2^2,3_2,2] = 0
 netflow[3^0,1]: - x[3_0,3^0,1] - x[3_1,3^0,1] - x[3_2,3^0,1] = -1
 netflow[3^0,2]: - x[3_0,3^0,2] - x[3_1,3^0,2] - x[3_2,3^0,2] = -1
 netflow[3_0,1]: x[3_0,3^0,1] - x[1^0,3_0,1] = 0
 netflow[3_0,2]: x[3_0,3^0,2] - x[2^0,3_0,2] = 0
 netflow[3_1,1]: x[3_1,3^0,1] - x[1^1,3_1,1] = 0
 netflow[3_1,2]: x[3_1,3^0,2] - x[2^1,3_1,2] = 0
 netflow[3_2,1]: x[3_2,3^0,1] = 0
 netflow[3_2,2]: x[3_2,3^0,2] - x[2^2,3_2,2] = 0
Bounds
Binaries
 z[3_0,3^0] z[3_1,3^0] z[3_2,3^0]
End
